networks/zoo_110_2380/zoo_110_2380-lower.txt
Number of groups: 55
Flow 1: {1 30 0} {30 13 0} {50 5 0} {5 2 0} {2 57 0} 
Flow 1: {13 50 0} Flow 2: {30 3 0} {3 58 0} 
Flow 3: {32 4 0} {4 59 0} 
Flow 3: {30 32 0} Flow 4: {5 60 0} 
Flow 5: {50 6 0} {6 61 0} 
Flow 6: {50 7 0} {7 62 0} 
Flow 7: {5 8 0} {8 63 0} 
Flow 8: {41 9 0} {9 64 0} 
Flow 8: {13 41 0} Flow 9: {9 10 0} {10 65 0} 
Flow 10: {9 20 0} {20 19 0} {19 11 0} {11 66 0} 
Flow 11: {26 12 0} {12 67 0} 
Flow 11: {13 26 0} Flow 12: {13 68 0} 
Flow 13: {30 14 0} {14 69 0} 
Flow 14: {30 29 0} {29 15 0} {15 70 0} 
Flow 15: {29 16 0} {16 71 0} 
Flow 16: {13 44 0} {44 17 0} {17 72 0} 
Flow 17: {20 18 0} {18 73 0} 
Flow 18: {19 74 0} 
Flow 19: {20 75 0} 
Flow 20: {20 21 0} {21 76 0} 
Flow 21: {20 22 0} {22 77 0} 
Flow 22: {32 23 0} {23 78 0} 
Flow 23: {32 24 0} {24 79 0} 
Flow 24: {50 25 0} {25 80 0} 
Flow 25: {26 81 0} 
Flow 26: {26 27 0} {27 82 0} 
Flow 27: {29 28 0} {28 83 0} 
Flow 28: {29 84 0} 
Flow 29: {30 85 0} 
Flow 30: {14 31 0} {31 86 0} 
Flow 31: {32 87 0} 
Flow 32: {30 51 0} {51 33 0} {33 88 0} 
Flow 33: {32 34 0} {34 89 0} 
Flow 34: {32 35 0} {35 90 0} 
Flow 35: {17 36 0} {36 91 0} 
Flow 36: {44 37 0} {37 92 0} 
Flow 37: {17 38 0} {38 93 0} 
Flow 38: {50 39 0} {39 94 0} 
Flow 39: {9 40 0} {40 95 0} 
Flow 40: {41 96 0} 
Flow 41: {44 42 0} {42 97 0} 
Flow 42: {44 43 0} {43 98 0} 
Flow 43: {44 99 0} 
Flow 44: {44 45 0} {45 100 0} 
Flow 45: {32 46 0} {46 101 0} 
Flow 46: {30 47 0} {47 102 0} 
Flow 47: {14 48 0} {48 103 0} 
Flow 48: {35 49 0} {49 104 0} 
Flow 49: {50 105 0} 
Flow 50: {51 106 0} 
Flow 51: {13 52 0} {52 107 0} 
Flow 52: {14 53 0} {53 108 0} 
Flow 53: {50 54 0} {54 109 0} 
Flow 54: {41 55 0} {55 110 0} 
Flow 55: {30 1 0} {1 56 0} 
Flow 55: {2 5 0} {5 50 0} {50 13 0} {13 30 0} Flow 57: {50 32 0} Flow 62: {5 9 0} Flow 66: {32 14 0} Flow 67: {13 29 0} Flow 69: {50 17 0} Flow 85: {32 33 0} Flow 91: {9 39 0} Flow 93: {9 41 0} Flow 103: {32 51 0} Flow 108: {3 30 0} Flow 162: {4 32 0} {32 30 0} Flow 163: {32 50 0} Flow 169: {50 9 0} Flow 175: {51 16 0} Flow 199: {7 40 0} Flow 213: {34 54 0} Flow 264: {6 50 0} Flow 318: {7 50 0} Flow 367: {8 5 0} Flow 402: {41 13 0} Flow 403: {9 5 0} Flow 405: {9 50 0} Flow 408: {40 7 0} Flow 456: {10 9 0} Flow 504: {11 19 0} {19 20 0} {20 9 0} Flow 524: {20 17 0} {17 44 0} Flow 533: {12 26 0} {26 13 0} Flow 563: {26 54 0} {54 34 0} Flow 564: {54 35 0} Flow 637: {14 30 0} Flow 638: {14 32 0} Flow 689: {15 29 0} {29 30 0} Flow 691: {29 13 0} Flow 705: {16 51 0} Flow 707: {51 30 0} Flow 708: {51 32 0} Flow 718: {16 29 0} Flow 760: {17 50 0} Flow 770: {17 20 0} Flow 814: {18 20 0} Flow 930: {21 20 0} Flow 979: {22 20 0} Flow 983: {23 32 0} Flow 1037: {24 32 0} Flow 1091: {25 50 0} Flow 1160: {27 26 0} Flow 1208: {28 29 0} Flow 1340: {31 14 0} Flow 1440: {33 32 0} Flow 1449: {33 51 0} Flow 1470: {34 32 0} Flow 1492: {54 26 0} Flow 1519: {35 32 0} Flow 1530: {35 54 0} Flow 1573: {36 17 0} Flow 1591: {37 44 0} {44 13 0} Flow 1637: {38 17 0} Flow 1686: {39 50 0} Flow 1687: {39 9 0} Flow 1742: {40 9 0} Flow 1810: {42 44 0} Flow 1830: {43 44 0} Flow 1917: {45 44 0} Flow 1922: {46 32 0} Flow 1968: {47 30 0} Flow 2022: {48 14 0} Flow 2040: {49 35 0} Flow 2194: {52 13 0} Flow 2246: {53 14 0} Flow 2296: {54 50 0} Flow 2349: {55 41 0} Time taken running everything: 0 seconds
