networks/zoo_110_2380/zoo_110_2380-lower.sol
<?xml version = "1.0" encoding="UTF-8" standalone="yes"?>
<CPLEXSolution version="1.2">
 <header
   problemName="networks/zoo_110_2380/zoo_110_2380-lower.lp"
   solutionName="incumbent"
   solutionIndex="-1"
   objectiveValue="59"
   solutionTypeValue="3"
   solutionTypeString="primal"
   solutionStatusValue="101"
   solutionStatusString="integer optimal solution"
   solutionMethodString="mip"
   primalFeasible="1"
   dualFeasible="1"
   MIPNodes="0"
   MIPIterations="14"
   writeLevel="3"/>
 <quality
   epInt="1.0000000000000001e-05"
   epRHS="9.9999999999999995e-07"
   maxIntInfeas="0"
   maxPrimalInfeas="0"
   maxX="1"
   maxSlack="1"/>
 <variables>
  <variable name="Y(28,29)" index="2998" value="1"/>
  <variable name="Y(61,8)" index="6607" value="1"/>
  <variable name="Y(107,55)" index="11714" value="1"/>
  <variable name="Y(137,31)" index="14990" value="1"/>
  <variable name="Y(153,47)" index="16766" value="1"/>
  <variable name="Y(191,32)" index="20931" value="1"/>
  <variable name="Y(272,10)" index="29819" value="1"/>
  <variable name="Y(401,54)" index="44053" value="1"/>
  <variable name="Y(462,7)" index="50716" value="1"/>
  <variable name="Y(514,20)" index="56449" value="1"/>
  <variable name="Y(556,27)" index="61076" value="1"/>
  <variable name="Y(622,41)" index="68350" value="1"/>
  <variable name="Y(704,50)" index="77379" value="1"/>
  <variable name="Y(727,23)" index="79882" value="1"/>
  <variable name="Y(732,28)" index="80437" value="1"/>
  <variable name="Y(822,19)" index="90328" value="1"/>
  <variable name="Y(886,11)" index="97360" value="1"/>
  <variable name="Y(893,18)" index="98137" value="1"/>
  <variable name="Y(917,43)" index="100802" value="1"/>
  <variable name="Y(935,6)" index="102745" value="1"/>
  <variable name="Y(963,38)" index="105857" value="1"/>
  <variable name="Y(979,9)" index="107588" value="1"/>
  <variable name="Y(1035,34)" index="113773" value="1"/>
  <variable name="Y(1048,12)" index="115181" value="1"/>
  <variable name="Y(1107,30)" index="121689" value="1"/>
  <variable name="Y(1145,35)" index="125874" value="1"/>
  <variable name="Y(1173,29)" index="128948" value="1"/>
  <variable name="Y(1230,49)" index="135238" value="1"/>
  <variable name="Y(1249,15)" index="137294" value="1"/>
  <variable name="Y(1255,22)" index="137961" value="1"/>
  <variable name="Y(1340,1)" index="147290" value="1"/>
  <variable name="Y(1420,34)" index="156123" value="1"/>
  <variable name="Y(1466,51)" index="161200" value="1"/>
  <variable name="Y(1468,53)" index="161422" value="1"/>
  <variable name="Y(1535,17)" index="168756" value="1"/>
  <variable name="Y(1585,50)" index="174289" value="1"/>
  <variable name="Y(1625,42)" index="178681" value="1"/>
  <variable name="Y(1654,21)" index="181850" value="1"/>
  <variable name="Y(1687,2)" index="185461" value="1"/>
  <variable name="Y(1710,25)" index="188014" value="1"/>
  <variable name="Y(1748,24)" index="192193" value="1"/>
  <variable name="Y(1754,39)" index="192868" value="1"/>
  <variable name="Y(1825,44)" index="200683" value="1"/>
  <variable name="Y(1852,36)" index="203645" value="1"/>
  <variable name="Y(1869,5)" index="205484" value="1"/>
  <variable name="Y(1900,37)" index="208926" value="1"/>
  <variable name="Y(1919,13)" index="210992" value="1"/>
  <variable name="Y(1935,16)" index="212755" value="1"/>
  <variable name="Y(2000,33)" index="219922" value="1"/>
  <variable name="Y(2027,14)" index="222873" value="1"/>
  <variable name="Y(2061,26)" index="226625" value="1"/>
  <variable name="Y(2089,4)" index="229683" value="1"/>
  <variable name="Y(2142,3)" index="235512" value="1"/>
  <variable name="Y(2236,45)" index="245894" value="1"/>
  <variable name="Y(2275,32)" index="250171" value="1"/>
  <variable name="Y(2289,48)" index="251727" value="1"/>
  <variable name="Y(2334,40)" index="256669" value="1"/>
  <variable name="Y(2340,46)" index="257335" value="1"/>
  <variable name="Y(2378,52)" index="261521" value="1"/>
  <variable name="X(1,30,28)" index="261827" value="1"/>
  <variable name="X(1,56,1340)" index="265519" value="1"/>
  <variable name="X(2,5,61)" index="266620" value="1"/>
  <variable name="X(2,57,1687)" index="270626" value="1"/>
  <variable name="X(3,30,137)" index="271456" value="1"/>
  <variable name="X(3,58,2142)" index="275841" value="1"/>
  <variable name="X(4,32,191)" index="276270" value="1"/>
  <variable name="X(4,59,2089)" index="280548" value="1"/>
  <variable name="X(5,2,1687)" index="282526" value="1"/>
  <variable name="X(5,8,61)" index="283280" value="1"/>
  <variable name="X(5,9,107)" index="285706" value="1"/>
  <variable name="X(5,50,401)" index="288380" value="1"/>
  <variable name="X(5,60,1869)" index="292228" value="1"/>
  <variable name="X(6,50,272)" index="293011" value="1"/>
  <variable name="X(6,61,935)" index="296054" value="1"/>
  <variable name="X(7,40,2334)" index="299833" value="1"/>
  <variable name="X(7,50,1748)" index="301627" value="1"/>
  <variable name="X(7,62,462)" index="302721" value="1"/>
  <variable name="X(8,5,401)" index="305040" value="1"/>
  <variable name="X(8,63,61)" index="307080" value="1"/>
  <variable name="X(9,5,1687)" index="311086" value="1"/>
  <variable name="X(9,10,272)" index="312051" value="1"/>
  <variable name="X(9,20,1255)" index="315414" value="1"/>
  <variable name="X(9,39,1754)" index="318293" value="1"/>
  <variable name="X(9,40,462)" index="319381" value="1"/>
  <variable name="X(9,41,107)" index="321406" value="1"/>
  <variable name="X(9,50,935)" index="324614" value="1"/>
  <variable name="X(9,64,979)" index="327038" value="1"/>
  <variable name="X(10,9,462)" index="328901" value="1"/>
  <variable name="X(10,65,272)" index="331091" value="1"/>
  <variable name="X(11,19,514)" index="333713" value="1"/>
  <variable name="X(11,66,886)" index="336465" value="1"/>
  <variable name="X(12,26,556)" index="338515" value="1"/>
  <variable name="X(12,67,1048)" index="341387" value="1"/>
  <variable name="X(13,26,1048)" index="343767" value="1"/>
  <variable name="X(13,29,1173)" index="346272" value="1"/>
  <variable name="X(13,30,1107)" index="348586" value="1"/>
  <variable name="X(13,41,1255)" index="351114" value="1"/>
  <variable name="X(13,44,2236)" index="354475" value="1"/>
  <variable name="X(13,50,704)" index="355323" value="1"/>
  <variable name="X(13,52,2378)" index="359377" value="1"/>
  <variable name="X(13,68,1919)" index="361298" value="1"/>
  <variable name="X(14,30,1340)" index="363099" value="1"/>
  <variable name="X(14,31,137)" index="364276" value="1"/>
  <variable name="X(14,32,2275)" index="368794" value="1"/>
  <variable name="X(14,48,2289)" index="371188" value="1"/>
  <variable name="X(14,53,1468)" index="372747" value="1"/>
  <variable name="X(14,69,2027)" index="375686" value="1"/>
  <variable name="X(15,29,704)" index="376743" value="1"/>
  <variable name="X(15,70,1249)" index="379668" value="1"/>
  <variable name="X(16,29,732)" index="381531" value="1"/>
  <variable name="X(16,51,727)" index="383906" value="1"/>
  <variable name="X(16,71,1935)" index="387494" value="1"/>
  <variable name="X(17,20,1654)" index="389593" value="1"/>
  <variable name="X(17,36,1852)" index="392171" value="1"/>
  <variable name="X(17,38,963)" index="393662" value="1"/>
  <variable name="X(17,44,917)" index="395996" value="1"/>
  <variable name="X(17,50,1585)" index="399044" value="1"/>
  <variable name="X(17,72,1535)" index="401374" value="1"/>
  <variable name="X(18,20,822)" index="403041" value="1"/>
  <variable name="X(18,73,893)" index="405492" value="1"/>
  <variable name="X(19,11,886)" index="407865" value="1"/>
  <variable name="X(19,20,514)" index="409873" value="1"/>
  <variable name="X(19,74,822)" index="412561" value="1"/>
  <variable name="X(20,9,979)" index="415098" value="1"/>
  <variable name="X(20,17,963)" index="417462" value="1"/>
  <variable name="X(20,18,893)" index="419772" value="1"/>
  <variable name="X(20,19,822)" index="422081" value="1"/>
  <variable name="X(20,21,1654)" index="425293" value="1"/>
  <variable name="X(20,22,1255)" index="427274" value="1"/>
  <variable name="X(20,75,514)" index="428913" value="1"/>
  <variable name="X(21,20,963)" index="431742" value="1"/>
  <variable name="X(21,76,1654)" index="434813" value="1"/>
  <variable name="X(22,20,979)" index="436518" value="1"/>
  <variable name="X(22,77,1255)" index="439174" value="1"/>
  <variable name="X(23,32,1035)" index="441334" value="1"/>
  <variable name="X(23,78,727)" index="443406" value="1"/>
  <variable name="X(24,32,1048)" index="446107" value="1"/>
  <variable name="X(24,79,1748)" index="449187" value="1"/>
  <variable name="X(25,50,1107)" index="450926" value="1"/>
  <variable name="X(25,80,1710)" index="453909" value="1"/>
  <variable name="X(26,12,1048)" index="455627" value="1"/>
  <variable name="X(26,13,1173)" index="458132" value="1"/>
  <variable name="X(26,27,556)" index="459895" value="1"/>
  <variable name="X(26,54,1145)" index="462864" value="1"/>
  <variable name="X(26,81,2061)" index="466160" value="1"/>
  <variable name="X(27,26,1173)" index="467652" value="1"/>
  <variable name="X(27,82,556)" index="469415" value="1"/>
  <variable name="X(28,29,1230)" index="472469" value="1"/>
  <variable name="X(28,83,732)" index="474351" value="1"/>
  <variable name="X(29,13,704)" index="476703" value="1"/>
  <variable name="X(29,15,1249)" index="479628" value="1"/>
  <variable name="X(29,16,1173)" index="481932" value="1"/>
  <variable name="X(29,28,732)" index="483871" value="1"/>
  <variable name="X(29,30,1230)" index="486749" value="1"/>
  <variable name="X(29,84,28)" index="487927" value="1"/>
  <variable name="X(30,1,1340)" index="491619" value="1"/>
  <variable name="X(30,3,2142)" index="494801" value="1"/>
  <variable name="X(30,13,1048)" index="496087" value="1"/>
  <variable name="X(30,14,137)" index="497556" value="1"/>
  <variable name="X(30,29,28)" index="499827" value="1"/>
  <variable name="X(30,32,1230)" index="503409" value="1"/>
  <variable name="X(30,47,153)" index="504712" value="1"/>
  <variable name="X(30,51,2000)" index="508939" value="1"/>
  <variable name="X(30,85,1107)" index="510426" value="1"/>
  <variable name="X(31,14,1340)" index="513039" value="1"/>
  <variable name="X(31,86,137)" index="514216" value="1"/>
  <variable name="X(32,4,2089)" index="518548" value="1"/>
  <variable name="X(32,14,1468)" index="520307" value="1"/>
  <variable name="X(32,23,727)" index="521946" value="1"/>
  <variable name="X(32,24,1748)" index="525347" value="1"/>
  <variable name="X(32,30,1048)" index="527027" value="1"/>
  <variable name="X(32,33,2275)" index="530634" value="1"/>
  <variable name="X(32,34,1035)" index="531774" value="1"/>
  <variable name="X(32,35,1230)" index="534349" value="1"/>
  <variable name="X(32,46,2340)" index="537839" value="1"/>
  <variable name="X(32,50,1535)" index="539414" value="1"/>
  <variable name="X(32,51,1935)" index="542194" value="1"/>
  <variable name="X(32,87,191)" index="542830" value="1"/>
  <variable name="X(33,32,1468)" index="546487" value="1"/>
  <variable name="X(33,51,1466)" index="548865" value="1"/>
  <variable name="X(33,88,2000)" index="551779" value="1"/>
  <variable name="X(34,32,2340)" index="554499" value="1"/>
  <variable name="X(34,54,1035)" index="555574" value="1"/>
  <variable name="X(34,89,1420)" index="558339" value="1"/>
  <variable name="X(35,32,1535)" index="560834" value="1"/>
  <variable name="X(35,49,1230)" index="562909" value="1"/>
  <variable name="X(35,54,2061)" index="566120" value="1"/>
  <variable name="X(35,90,1145)" index="567584" value="1"/>
  <variable name="X(36,17,1585)" index="570404" value="1"/>
  <variable name="X(36,91,1852)" index="573051" value="1"/>
  <variable name="X(37,44,1625)" index="575204" value="1"/>
  <variable name="X(37,92,1900)" index="577859" value="1"/>
  <variable name="X(38,17,1654)" index="579993" value="1"/>
  <variable name="X(38,93,963)" index="581682" value="1"/>
  <variable name="X(39,9,1687)" index="584786" value="1"/>
  <variable name="X(39,50,1710)" index="587189" value="1"/>
  <variable name="X(39,94,1754)" index="589613" value="1"/>
  <variable name="X(40,7,462)" index="590701" value="1"/>
  <variable name="X(40,9,1754)" index="594373" value="1"/>
  <variable name="X(40,95,2334)" index="597333" value="1"/>
  <variable name="X(41,9,1255)" index="598634" value="1"/>
  <variable name="X(41,13,2378)" index="602137" value="1"/>
  <variable name="X(41,55,107)" index="602246" value="1"/>
  <variable name="X(41,96,622)" index="605141" value="1"/>
  <variable name="X(42,44,1825)" index="608724" value="1"/>
  <variable name="X(42,97,1625)" index="610904" value="1"/>
  <variable name="X(43,44,1852)" index="613511" value="1"/>
  <variable name="X(43,98,917)" index="614956" value="1"/>
  <variable name="X(44,13,1919)" index="618338" value="1"/>
  <variable name="X(44,17,1852)" index="620651" value="1"/>
  <variable name="X(44,37,1900)" index="623079" value="1"/>
  <variable name="X(44,42,1625)" index="625184" value="1"/>
  <variable name="X(44,43,917)" index="626856" value="1"/>
  <variable name="X(44,45,2236)" index="630555" value="1"/>
  <variable name="X(44,99,1825)" index="632524" value="1"/>
  <variable name="X(45,44,1919)" index="634998" value="1"/>
  <variable name="X(45,100,2236)" index="637695" value="1"/>
  <variable name="X(46,32,1935)" index="639774" value="1"/>
  <variable name="X(46,101,2340)" index="642559" value="1"/>
  <variable name="X(47,30,2000)" index="644599" value="1"/>
  <variable name="X(47,102,153)" index="645132" value="1"/>
  <variable name="X(48,14,2027)" index="649386" value="1"/>
  <variable name="X(48,103,2289)" index="652028" value="1"/>
  <variable name="X(49,35,2061)" index="654180" value="1"/>
  <variable name="X(49,104,1230)" index="655729" value="1"/>
  <variable name="X(50,5,1869)" index="658748" value="1"/>
  <variable name="X(50,6,935)" index="660194" value="1"/>
  <variable name="X(50,7,2334)" index="663973" value="1"/>
  <variable name="X(50,9,272)" index="664291" value="1"/>
  <variable name="X(50,13,1107)" index="667506" value="1"/>
  <variable name="X(50,17,1535)" index="670314" value="1"/>
  <variable name="X(50,25,1710)" index="672869" value="1"/>
  <variable name="X(50,32,1748)" index="675287" value="1"/>
  <variable name="X(50,39,1585)" index="677504" value="1"/>
  <variable name="X(50,54,401)" index="678700" value="1"/>
  <variable name="X(50,105,704)" index="681383" value="1"/>
  <variable name="X(51,16,1935)" index="684994" value="1"/>
  <variable name="X(51,30,2142)" index="687581" value="1"/>
  <variable name="X(51,32,727)" index="688546" value="1"/>
  <variable name="X(51,33,2000)" index="692199" value="1"/>
  <variable name="X(51,106,1466)" index="694045" value="1"/>
  <variable name="X(52,13,2236)" index="697195" value="1"/>
  <variable name="X(52,107,2378)" index="699717" value="1"/>
  <variable name="X(53,14,2289)" index="702008" value="1"/>
  <variable name="X(53,108,1468)" index="703567" value="1"/>
  <variable name="X(54,26,2061)" index="706540" value="1"/>
  <variable name="X(54,34,2340)" index="709199" value="1"/>
  <variable name="X(54,35,1145)" index="710384" value="1"/>
  <variable name="X(54,50,2334)" index="713953" value="1"/>
  <variable name="X(54,109,401)" index="714400" value="1"/>
  <variable name="X(55,41,2378)" index="718757" value="1"/>
  <variable name="X(55,110,107)" index="718866" value="1"/>
 </variables>
</CPLEXSolution>
